
===== New CPLEX run =====
Instance: /home/yorig/tuner/mpils-tests/instances/miplib/medium-2/rococoB10-011000.mps
Config: /scratch/yorig/mpils-results-grid-seconds-10-no-mip-start/medium-2/2proc/seed-2/5_rococoB10-011000_seed-2_20260503_030918/iterated_local_search/run_2_worker_1/ils_config_16213125645857123571.prm
========================

Selected objective sense:  MINIMIZE
Selected objective  name:  obj
Selected RHS        name:  rhs
Selected bound      name:  bnd
Version identifier: 22.1.2.0 | 2024-11-26 | 0edbb82fd
CPXPARAM_Threads                                 8
CPXPARAM_Parallel                                1
CPXPARAM_MIP_Cuts_Implied                        1
CPXPARAM_MIP_Limits_GomoryCand                   25
CPXPARAM_MIP_Cuts_PathCut                        2
CPXPARAM_TimeLimit                               10
13 of 13 MIP starts provided solutions.
MIP start 'm1' defined initial solution with objective 19733.0000.
Tried aggregator 2 times.
MIP Presolve eliminated 811 rows and 810 columns.
Aggregator did 136 substitutions.
Reduced MIP has 720 rows, 3510 columns, and 13731 nonzeros.
Reduced MIP has 3510 binaries, 0 generals, 0 SOSs, and 0 indicators.
Presolve time = 0.01 sec. (9.98 ticks)
Probing time = 0.00 sec. (1.02 ticks)
Tried aggregator 1 time.
Detecting symmetries...
Reduced MIP has 720 rows, 3510 columns, and 13731 nonzeros.
Reduced MIP has 3510 binaries, 0 generals, 0 SOSs, and 0 indicators.
Presolve time = 0.01 sec. (7.45 ticks)
Probing time = 0.00 sec. (1.09 ticks)
Clique table members: 6015.
MIP emphasis: balance optimality and feasibility.
MIP search method: dynamic search.
Parallel mode: deterministic, using up to 8 threads.
Root relaxation solution time = 0.05 sec. (94.20 ticks)

        Nodes                                         Cuts/
   Node  Left     Objective  IInf  Best Integer    Best Bound    ItCnt     Gap

*     0+    0                        19733.0000        0.0000           100.00%
      0     0     8350.1995   261    19733.0000     8350.1995     2534   57.68%
      0     0    10800.7181   353    19733.0000     Cuts: 257     2845   45.27%
      0     0    11763.8901   420    19733.0000     Cuts: 278     3086   40.38%
